(set-logic LIA)

(declare-const tmp___0 Int)
(declare-const tmp___0! Int)
(declare-const tmp Int)
(declare-const tmp! Int)
(declare-const c Int)
(declare-const c! Int)

(declare-const c_42 Int)
(declare-const c_37 Int)
(declare-const c_36 Int)
(declare-const c_33 Int)

(define-fun inv-f((c Int)(tmp Int)(tmp___0 Int)) Bool
